Version identifier: 22.1.0.0 | 2022-03-09 | 1a383f8ce
CPXPARAM_Threads                                 1
CPXPARAM_MIP_Strategy_VariableSelect             3
CPXPARAM_TimeLimit                               599.999983993
1 of 1 MIP starts provided solutions.
MIP start 'm1' defined initial solution with objective 1.0000.
Tried aggregator 1 time.
MIP Presolve eliminated 16 rows and 0 columns.
MIP Presolve modified 42 coefficients.
Reduced MIP has 4005 rows, 10500 columns, and 221120 nonzeros.
Reduced MIP has 10500 binaries, 0 generals, 0 SOSs, and 0 indicators.
Presolve time = 0.21 sec. (347.37 ticks)
Probing time = 0.03 sec. (27.50 ticks)
Tried aggregator 1 time.
Detecting symmetries...
MIP Presolve modified 13 coefficients.
Reduced MIP has 4005 rows, 10500 columns, and 221284 nonzeros.
Reduced MIP has 10500 binaries, 0 generals, 0 SOSs, and 0 indicators.
Presolve time = 0.20 sec. (335.46 ticks)
Probing time = 0.03 sec. (27.51 ticks)
Clique table members: 2493.
MIP emphasis: balance optimality and feasibility.
MIP search method: dynamic search.
Parallel mode: none, using 1 thread.
Root relaxation solution time = 2.58 sec. (3097.11 ticks)

        Nodes                                         Cuts/
   Node  Left     Objective  IInf  Best Integer    Best Bound    ItCnt     Gap

*     0+    0                            1.0000   125250.0000              --- 
      0     0      500.0000  1954        1.0000      500.0000     7743     --- 
*     0+    0                          263.0000      500.0000            90.11%
      0     0      500.0000   107      263.0000    Cliques: 4     8671   90.11%
      0     0      500.0000   174      263.0000      Cuts: 48    10400   90.11%
      0     0      500.0000    27      263.0000   ZeroHalf: 2    10633   90.11%
*     0+    0                          500.0000      500.0000             0.00%
      0     0        cutoff            500.0000      500.0000    10633    0.00%
      0     0        cutoff            500.0000      500.0000    10633    0.00%
Elapsed time = 47.33 sec. (49751.86 ticks, tree = 0.01 MB, solutions = 3)

Clique cuts applied:  8
Zero-half cuts applied:  10

Root node processing (before b&c):
  Real time             =   47.33 sec. (49752.34 ticks)
Sequential b&c:
  Real time             =    0.00 sec. (0.00 ticks)
                          ------------
Total (root+branch&cut) =   47.33 sec. (49752.34 ticks)
19
5
6
19
2
12
19
4
6
19
2
12
19
4
18
16
11
1
16
11
1
16
15
18
0
17
7
0
8
7
0
17
7
13
8
7
13
17
7
13
17
7
13
17
7
13
17
7
13
17
7
0
12
3
13
11
3
0
11
3
13
11
3
13
7
8
13
7
8
0
7
17
13
5
3
9
4
3
9
18
14
9
1
14
9
2
3
13
11
14
0
11
3
13
15
3
13
11
3
13
7
8
13
7
17
0
7
8
0
7
3
13
15
14
0
11
14
0
15
14
0
11
3
0
15
14
0
15
3
13
11
14
0
15
14
0
11
14
0
11
14
13
5
11
16
1
11
16
5
15
16
4
11
16
5
15
16
5
15
16
5
15
16
4
15
16
5
15
16
5
15
16
4
15
16
4
15
16
18
6
19
2
6
19
5
12
19
2
6
19
2
4
16
6
7
16
6
18
19
12
18
19
6
1
19
6
18
19
6
2
19
12
2
19
18
6
19
4
12
19
5
2
14
9
5
3
9
18
14
9
1
14
9
18
3
10
2
17
10
4
8
10
1
8
10
5
17
10
4
17
10
5
17
10
1
8
10
1
8
10
1
8
10
4
14
9
1
14
9
18
14
9
2
14
9
18
14
9
18
14
9
2
14
10
4
8
0
7
17
0
7
8
13
7
8
13
7
17
0
7
8
13
7
8
5
10
8
4
10
17
2
10
8
1
10
8
1
13
3
11
0
14
15
13
3
15
13
3
18
10
8
5
10
14
2
9
3
18
9
3
18
10
17
18
10
3
2
9
3
18
6
19
4
1
19
1
2
19
6
18
19
6
18
19
6
4
16
11
5
16
7
2
0
11
14
0
1
12
19
2
18
19
6
2
19
6
18
19
6
5
19
12
18
19
12
18
19
12
4
19
12
5
19
6
18
16
15
5
16
11
4
16
11
5
16
15
5
16
15
5
3
9
1
3
9
18
3
9
18
14
10
5
8
10
2
17
10
1
17
10
18
14
9
2
14
9
2
14
9
5
14
9
5
3
9
18
3
6
18
19
6
18
19
12
4
19
6
2
19
12
2
19
6
2
19
12
4
19
6
2
10
8
4
10
17
18
10
8
4
10
8
4
10
8
5
10
8
1
10
8
Primal:	500
Dual:	500
Status:	Optimal
Time:	47.37
